179
300
240	9
238	9
237	6
236	6
235	4
234	7
233	4
232	3
231	2
230	3
229	7
228	6
227	7
226	4
225	4
224	6
223	8
222	5
221	1
220	6
219	3
218	5
217	4
216	8
215	8
214	5
213	9
212	6
211	7
210	9
209	9
208	4
207	5
206	2
205	6
204	5
203	4
202	5
201	4
200	6
199	8
198	4
197	7
196	4
195	7
194	7
193	5
192	3
191	11
190	8
189	6
188	8
186	2
185	5
184	7
183	2
182	6
181	5
180	7
179	6
178	6
177	9
176	4
175	3
174	6
173	6
172	7
171	9
170	4
169	9
168	6
167	6
166	3
165	6
164	6
163	4
162	5
161	4
160	5
159	8
158	7
157	8
156	2
155	4
154	6
153	2
152	5
151	4
150	7
149	11
148	5
147	6
146	4
145	5
144	3
143	6
142	1
141	6
140	2
139	6
138	6
137	6
136	6
135	8
134	5
133	5
132	3
131	4
130	4
129	6
128	4
127	3
126	2
125	5
124	5
123	2
122	6
121	7
120	7
119	1
118	8
117	3
116	6
115	5
114	5
113	5
112	6
111	12
110	5
109	5
108	4
107	5
106	7
105	12
104	3
103	4
102	8
101	6
100	5
99	5
98	5
97	6
96	4
95	6
94	7
93	4
92	4
91	7
90	6
89	10
88	8
87	6
86	4
85	14
84	3
83	5
82	5
81	4
80	8
79	7
78	6
77	1
76	3
75	8
74	4
73	7
72	3
71	5
70	5
69	7
68	6
67	8
66	4
65	6
64	3
63	5
62	8
61	11
60	8
